NAME: random-6-17708
TYPE: TSP
COMMENT: size=6 seed=17708
DIMENSION: 14
EDGE_WEIGHT_TYPE: EUC_2D
NODE_COORD_SECTION
+0 356 429
-0 356 429
+1 642 157
-1 201 37
+2 368 475
-2 743 361
+3 378 772
-3 734 911
+4 568 140
-4 237 895
+5 900 485
-5 409 184
+6 479 54
-6 776 211
PRECEDENCE_SECTION
+0 -0
+1 -1
+2 -2
+3 -3
+4 -4
+5 -5
+6 -6
EOF
